c t wmc
c file mc2023_track2_169.cnf
p cnf 100 260
61 -68 -77 0
24 -39 -40 0
-73 10 16 0
-22 10 -50 0
6 69 -12 0
-59 40 54 0
-22 -74 -100 0
8 61 54 0
-74 70 -23 0
-75 85 -47 0
-60 -21 -46 0
-91 -89 25 0
-74 29 -38 0
-20 50 -36 0
14 31 -10 0
-68 -97 38 0
4 -82 73 0
90 -58 82 0
-5 94 54 0
-36 -94 -89 0
83 -30 -73 0
-31 -39 95 0
-57 -17 -97 0
13 9 33 0
48 36 -50 0
28 23 -39 0
-73 -93 77 0
-9 38 96 0
35 -86 6 0
60 -51 -100 0
-13 11 2 0
54 -26 50 0
-94 -79 12 0
-21 76 39 0
96 36 9 0
-32 89 -75 0
66 29 97 0
14 21 -22 0
51 54 67 0
72 98 25 0
-2 57 -61 0
-77 83 62 0
-59 -35 -21 0
-94 15 83 0
-71 20 -82 0
-32 -5 23 0
24 -91 -36 0
44 80 88 0
1 60 -16 0
-9 40 -37 0
20 -23 37 0
53 -26 49 0
-13 -98 -10 0
-54 17 51 0
50 67 -29 0
-96 11 81 0
-39 96 66 0
48 96 -4 0
-68 -42 49 0
38 46 -68 0
-3 65 24 0
-84 86 73 0
-55 -49 -16 0
13 -71 46 0
51 -66 39 0
64 62 -96 0
51 -41 -82 0
75 94 -39 0
-66 -74 -54 0
28 -43 -75 0
57 56 5 0
39 30 12 0
-39 -69 51 0
-72 46 -43 0
58 -94 41 0
31 44 -52 0
-86 -92 -54 0
10 75 63 0
72 -99 25 0
-44 -55 -2 0
5 41 15 0
-13 -2 62 0
-86 -78 76 0
19 47 -53 0
4 25 31 0
-90 -13 78 0
-94 -4 -65 0
-27 -54 -55 0
41 22 66 0
-52 72 -16 0
-70 12 -92 0
97 31 -95 0
-23 -100 77 0
66 -44 -43 0
-17 -57 -26 0
3 74 45 0
-47 48 -69 0
49 70 -47 0
-22 -9 25 0
-58 -52 75 0
16 14 -71 0
51 18 -77 0
-17 -37 48 0
59 51 95 0
-95 -20 -36 0
-88 -45 -34 0
-40 8 88 0
-73 -98 88 0
30 42 56 0
13 -2 31 0
32 14 57 0
63 -92 69 0
37 -92 45 0
25 -1 -70 0
-52 -100 -13 0
-4 89 13 0
31 -55 20 0
-45 -76 -97 0
44 35 80 0
-60 9 -47 0
19 49 41 0
80 -49 -77 0
11 -19 37 0
8 32 21 0
-53 11 90 0
19 -20 -6 0
-86 56 48 0
-75 71 32 0
-100 39 -27 0
-70 -23 -16 0
43 25 79 0
-2 -96 31 0
57 54 -13 0
92 9 66 0
92 -27 6 0
-46 68 28 0
85 96 55 0
80 25 30 0
79 34 76 0
32 35 34 0
49 -72 -88 0
-84 43 62 0
-84 18 75 0
-3 -27 11 0
-59 8 -48 0
10 -6 89 0
-8 -37 62 0
35 11 59 0
-91 100 6 0
80 64 -52 0
100 -99 -96 0
38 -34 14 0
11 3 -50 0
-19 -75 77 0
-77 39 -76 0
-59 24 77 0
60 12 -97 0
-21 85 19 0
31 52 -55 0
69 -2 59 0
67 -12 15 0
-54 -78 -86 0
-84 -38 -58 0
88 93 62 0
-72 -39 45 0
99 -23 -73 0
-67 -58 62 0
-18 -21 93 0
76 -44 42 0
5 1 89 0
39 -94 49 0
-22 -77 -9 0
28 38 96 0
64 98 -7 0
-15 -5 56 0
-63 31 41 0
88 -45 -37 0
-40 -33 -100 0
97 95 -46 0
-5 89 -11 0
-34 11 -7 0
20 72 -36 0
3 -67 -26 0
92 -45 41 0
22 -75 17 0
8 -17 54 0
81 54 -63 0
37 -5 24 0
9 -67 -50 0
6 89 -76 0
70 -77 9 0
35 -69 -91 0
76 9 69 0
46 -54 -53 0
62 -50 87 0
44 -82 -93 0
-92 3 -64 0
81 37 70 0
28 -39 -37 0
67 -77 -1 0
44 57 15 0
-82 -72 -17 0
-96 19 -72 0
4 31 75 0
-99 6 -90 0
-83 -52 -67 0
9 -44 -92 0
82 57 -80 0
90 61 43 0
37 51 85 0
40 -37 64 0
31 41 78 0
36 34 -95 0
88 45 -55 0
26 90 -3 0
36 -45 -47 0
-49 -16 -13 0
88 68 -27 0
17 31 -59 0
-25 81 -64 0
-53 -48 67 0
63 -38 -53 0
-53 50 -100 0
21 57 12 0
32 86 -29 0
44 86 -76 0
-73 -82 26 0
-13 62 87 0
-56 28 63 0
-89 66 12 0
-27 -49 60 0
76 81 -21 0
34 69 86 0
58 -75 86 0
-27 75 57 0
-67 70 56 0
-71 -13 99 0
-11 -84 51 0
9 1 2 0
15 51 -71 0
12 26 -33 0
-84 -99 7 0
22 79 -13 0
1 78 77 0
60 -55 -86 0
30 11 68 0
-70 89 66 0
23 -42 86 0
50 58 60 0
96 42 -81 0
-48 87 12 0
-73 -16 -96 0
-53 -93 48 0
49 28 -46 0
33 25 -78 0
98 -26 55 0
79 -20 -32 0
19 3 -38 0
43 -92 -84 0
95 84 -72 0
c p weight 87 0.43042684 0
c p weight -87 0.56957316 0
c p weight 60 0.31135931 0
c p weight -60 0.68864069 0
c p weight 1 1 0
c p weight -1 1 0
c p weight 2 1 0
c p weight -2 1 0
c p weight 3 1 0
c p weight -3 1 0
c p weight 4 1 0
c p weight -4 1 0
c p weight 5 1 0
c p weight -5 1 0
c p weight 6 1 0
c p weight -6 1 0
c p weight 7 1 0
c p weight -7 1 0
c p weight 8 1 0
c p weight -8 1 0
c p weight 9 1 0
c p weight -9 1 0
c p weight 10 1 0
c p weight -10 1 0
c p weight 11 1 0
c p weight -11 1 0
c p weight 12 1 0
c p weight -12 1 0
c p weight 13 1 0
c p weight -13 1 0
c p weight 14 1 0
c p weight -14 1 0
c p weight 15 1 0
c p weight -15 1 0
c p weight 16 1 0
c p weight -16 1 0
c p weight 17 1 0
c p weight -17 1 0
c p weight 18 1 0
c p weight -18 1 0
c p weight 19 1 0
c p weight -19 1 0
c p weight 20 1 0
c p weight -20 1 0
c p weight 21 1 0
c p weight -21 1 0
c p weight 22 1 0
c p weight -22 1 0
c p weight 23 1 0
c p weight -23 1 0
c p weight 24 1 0
c p weight -24 1 0
c p weight 25 1 0
c p weight -25 1 0
c p weight 26 1 0
c p weight -26 1 0
c p weight 27 1 0
c p weight -27 1 0
c p weight 28 1 0
c p weight -28 1 0
c p weight 29 1 0
c p weight -29 1 0
c p weight 30 1 0
c p weight -30 1 0
c p weight 31 1 0
c p weight -31 1 0
c p weight 32 1 0
c p weight -32 1 0
c p weight 33 1 0
c p weight -33 1 0
c p weight 34 1 0
c p weight -34 1 0
c p weight 35 1 0
c p weight -35 1 0
c p weight 36 1 0
c p weight -36 1 0
c p weight 37 1 0
c p weight -37 1 0
c p weight 38 1 0
c p weight -38 1 0
c p weight 39 1 0
c p weight -39 1 0
c p weight 40 1 0
c p weight -40 1 0
c p weight 41 1 0
c p weight -41 1 0
c p weight 42 1 0
c p weight -42 1 0
c p weight 43 1 0
c p weight -43 1 0
c p weight 44 1 0
c p weight -44 1 0
c p weight 45 1 0
c p weight -45 1 0
c p weight 46 1 0
c p weight -46 1 0
c p weight 47 1 0
c p weight -47 1 0
c p weight 48 1 0
c p weight -48 1 0
c p weight 49 1 0
c p weight -49 1 0
c p weight 50 1 0
c p weight -50 1 0
c p weight 51 1 0
c p weight -51 1 0
c p weight 52 1 0
c p weight -52 1 0
c p weight 53 1 0
c p weight -53 1 0
c p weight 54 1 0
c p weight -54 1 0
c p weight 55 1 0
c p weight -55 1 0
c p weight 56 1 0
c p weight -56 1 0
c p weight 57 1 0
c p weight -57 1 0
c p weight 58 1 0
c p weight -58 1 0
c p weight 59 1 0
c p weight -59 1 0
c p weight 61 1 0
c p weight -61 1 0
c p weight 62 1 0
c p weight -62 1 0
c p weight 63 1 0
c p weight -63 1 0
c p weight 64 1 0
c p weight -64 1 0
c p weight 65 1 0
c p weight -65 1 0
c p weight 66 1 0
c p weight -66 1 0
c p weight 67 1 0
c p weight -67 1 0
c p weight 68 1 0
c p weight -68 1 0
c p weight 69 1 0
c p weight -69 1 0
c p weight 70 1 0
c p weight -70 1 0
c p weight 71 1 0
c p weight -71 1 0
c p weight 72 1 0
c p weight -72 1 0
c p weight 73 1 0
c p weight -73 1 0
c p weight 74 1 0
c p weight -74 1 0
c p weight 75 1 0
c p weight -75 1 0
c p weight 76 1 0
c p weight -76 1 0
c p weight 77 1 0
c p weight -77 1 0
c p weight 78 1 0
c p weight -78 1 0
c p weight 79 1 0
c p weight -79 1 0
c p weight 80 1 0
c p weight -80 1 0
c p weight 81 1 0
c p weight -81 1 0
c p weight 82 1 0
c p weight -82 1 0
c p weight 83 1 0
c p weight -83 1 0
c p weight 84 1 0
c p weight -84 1 0
c p weight 85 1 0
c p weight -85 1 0
c p weight 86 1 0
c p weight -86 1 0
c p weight 88 1 0
c p weight -88 1 0
c p weight 89 1 0
c p weight -89 1 0
c p weight 90 1 0
c p weight -90 1 0
c p weight 91 1 0
c p weight -91 1 0
c p weight 92 1 0
c p weight -92 1 0
c p weight 93 1 0
c p weight -93 1 0
c p weight 94 1 0
c p weight -94 1 0
c p weight 95 1 0
c p weight -95 1 0
c p weight 96 1 0
c p weight -96 1 0
c p weight 97 1 0
c p weight -97 1 0
c p weight 98 1 0
c p weight -98 1 0
c p weight 99 1 0
c p weight -99 1 0
c p weight 100 1 0
c p weight -100 1 0
